16 32
1 2 5
1 5 2
2 3 3
2 6 1
3 4 3
3 7 5
4 8 2
5 6 5
5 9 4
6 7 2
6 10 4
7 8 5
7 11 5
8 12 5
9 10 4
9 13 3
10 11 4
10 14 3
11 12 2
11 15 2
12 16 2
13 14 5
14 15 2
15 16 4
1 13 2
2 14 2
3 15 3
4 16 1
1 4 3
5 8 5
9 12 3
13 16 1
